c --- [ banner ] -------------------------------------------------------------
c 
c CaDiCaL Radically Simplified CDCL SAT Solver
c Copyright (c) 2016-2021 A. Biere, M. Fleury, N. Froleyks
c 
c Version 1.5.2 ca9bff05c11bde5eae4912f9932871d1527e61d8
c g++ (GCC) 9.3.0 -Wall -Wextra -O3 -DNDEBUG
c Sun May 1 02:23:23 EDT 2022 Linux gra-login1 3.10.0-1160.59.1.el7.x86_64 x86_64
c 
c --- [ limit ] --------------------------------------------------------------
c 
c setting conflict limit to 200000 conflicts (due to '200000')
c 
c --- [ parsing input ] ------------------------------------------------------
c 
c reading DIMACS file from '12.cubes1399.adj'
c opening file to read '12.cubes1399.adj'
c found 'p cnf 5320 924210' header
c parsed 924210 clauses in 8.70 seconds process time
c closing file '12.cubes1399.adj'
c after reading 686668113 bytes 654.9 MB
c 
c --- [ options ] ------------------------------------------------------------
c 
c all options are set to their default value
c 
c --- [ solving ] ------------------------------------------------------------
c 
c time measured in process time since initialization
c 
c  seconds   reductions  redundant  irredundant
c          MB    restarts       trail      variables
c           level   conflicts       glue        remaining
c 
c *  8.70 693  0 0   0    0    0  0% 0 923580 3919 74%
c {  9.25 720  0 0   0    0    0  0% 0 923580 3919 74%
c i  9.84 732 57 0   2   64   51 42% 4 923580 3918 74%
c i 10.01 734 48 0   3   86   60 41% 5 923580 3917 74%
c i 10.12 736 49 0   5   94   66 42% 7 923580 3911 74%
c i 10.20 736 54 0   7  105   74 43% 11 923580 3901 73%
c i 10.50 738 61 0  29  192  129 45% 14 923580 3899 73%
c i 10.62 738 64 0  38  239  165 46% 19 923580 3898 73%
c i 10.63 738 64 0  38  240  165 46% 19 923580 3897 73%
c i 10.70 739 62 0  47  282  183 45% 20 923580 3896 73%
c i 10.71 739 62 0  47  285  185 45% 20 923580 3895 73%
c - 12.43 698 63 1  48  300  193 46% 20 98039 3895 73%
c i 12.50 678 62 1  48  301  193 46% 20 98039 3894 73%
c i 12.54 678 55 1  52  363  237 46% 19 98039 3893 73%
c i 12.56 678 55 1  52  371  244 47% 19 98039 3892 73%
c i 12.59 678 52 1  55  440  284 48% 19 98039 3891 73%
c i 12.59 678 51 1  55  443  286 48% 19 98039 3890 73%
c i 12.59 678 51 1  55  447  288 48% 19 98039 3889 73%
c i 12.63 678 46 1  60  567  373 49% 19 98039 3888 73%
c i 12.64 678 46 1  60  568  373 49% 19 98039 3887 73%
c 
c  seconds   reductions  redundant   irredundant
c          MB    restarts       trail      variables
c           level   conflicts       glue        remaining
c 
c i 12.65 678 46 1  63  581  384 49% 19 98039 3886 73%
c i 12.71 679 46 1  75  629  425 49% 20 98039 3885 73%
c i 12.71 679 46 1  75  631  426 49% 20 98039 3884 73%
c i 12.74 679 47 1  78  641  434 49% 20 98039 3883 73%
c i 12.74 679 47 1  79  645  437 49% 20 98039 3882 73%
c i 12.79 679 48 1  84  669  457 49% 21 98039 3881 73%
c i 12.84 679 47 1  96  712  492 49% 21 98039 3880 73%
c i 12.84 679 47 1  96  713  492 49% 21 98039 3879 73%
c i 12.84 679 47 1  96  714  492 49% 21 98039 3878 73%
c i 12.84 679 47 1  96  715  492 49% 21 98039 3877 73%
c i 12.84 679 47 1  96  716  492 49% 21 98039 3876 73%
c i 12.84 679 47 1  96  718  493 49% 21 98039 3875 73%
c i 12.94 679 48 1 107  796  549 49% 21 98039 3874 73%
c i 12.95 679 47 1 107  797  549 49% 21 98039 3873 73%
c i 12.95 679 47 1 107  798  549 49% 21 98039 3872 73%
c i 12.95 679 47 1 107  799  549 49% 21 98039 3871 73%
c i 12.99 679 49 1 107  829  571 49% 21 98039 3870 73%
c i 13.00 679 50 1 107  836  576 49% 21 98039 3869 73%
c i 13.01 679 50 1 110  847  585 49% 22 98039 3868 73%
c i 13.03 679 50 1 114  869  597 49% 21 98039 3853 72%
c 
c  seconds   reductions  redundant   irredundant
c          MB    restarts       trail      variables
c           level   conflicts       glue        remaining
c 
c i 13.04 679 50 1 114  884  607 48% 21 98039 3852 72%
c - 13.19 711 49 2 114  900  531 49% 21 97610 3852 72%
c i 13.21 711 49 2 114  919  548 49% 21 97610 3851 72%
c i 13.21 711 48 2 114  934  562 49% 21 97610 3847 72%
c i 13.21 711 48 2 114  938  565 49% 21 97610 3846 72%
c i 13.21 711 48 2 114  948  574 49% 21 97610 3842 72%
c i 13.22 711 48 2 114  954  577 49% 21 97610 3841 72%
c } 13.23 711 47 2 114 1002  611 49% 20 97610 3841 72%
c [ 13.23 711  0 2 114 1002  611  0% 0 97610 3841 72%
c O 13.23 711  0 2 114 1003  611 31% 0 97610 3838 72%
c i 13.23 711  0 2 114 1003  611 31% 0 97610 3752 71%
c i 13.24 711  8 2 114 1027  628 52% 7 97610 3751 71%
c i 13.24 711 13 2 114 1041  633 54% 9 97610 3750 70%
c i 13.25 711 18 2 114 1094  658 55% 16 97610 3749 70%
c i 13.28 711 15 2 114 1339  766 55% 13 97610 3748 70%
c i 13.29 711 15 2 114 1358  772 55% 13 97610 3747 70%
c i 13.30 711 15 2 114 1425  804 55% 13 97610 3746 70%
c i 13.31 711 16 2 114 1481  840 54% 13 97610 3745 70%
c i 13.33 711 18 2 114 1587  902 55% 14 97610 3744 70%
c - 13.45 708 17 3 114 1800  743 55% 14 96413 3744 70%
c 
c  seconds   reductions  redundant   irredundant
c          MB    restarts       trail      variables
c           level   conflicts       glue        remaining
c 
c i 13.48 708 17 3 114 1844  769 55% 14 96413 3743 70%
c i 13.48 708 17 3 114 1852  772 55% 14 96413 3742 70%
c i 13.50 708 16 3 114 2018  827 55% 13 96413 3741 70%
c i 13.52 708 17 3 115 2048  853 55% 14 96413 3740 70%
c i 13.53 708 19 3 115 2097  889 55% 16 96413 3739 70%
c ] 13.66 708 25 3 115 3004 1490 55% 21 96413 3739 70%
c { 13.66 708 47 3 115 3004 1490 49% 20 96413 3739 70%
c - 13.72 708 47 4 115 3004 1156 49% 20 96398 3739 70%
c F 13.77 707 47 4 115 3005 1157 12% 20 96398 3739 70%
c i 13.87 707 41 4 119 3329 1409 35% 20 96398 3738 70%
c i 13.87 707 41 4 119 3339 1417 35% 20 96398 3737 70%
c i 13.87 707 41 4 119 3342 1419 35% 20 96398 3736 70%
c i 13.89 707 40 4 119 3417 1480 35% 19 96398 3735 70%
c i 13.99 707 36 4 124 3898 1843 36% 19 96398 3734 70%
c i 14.04 707 36 4 142 4045 1954 36% 19 96398 3733 70%
c i 14.18 707 39 4 188 4219 2111 35% 21 96398 3732 70%
c i 14.36 707 42 4 238 4447 2310 34% 22 96398 3731 70%
c - 14.48 708 43 5 252 4504 1769 34% 23 96374 3731 70%
c i 14.57 708 42 5 270 4658 1859 34% 22 96374 3730 70%
c 3 14.86 708 41 5 285 5000 3433 34% 22 96355 3722 70%
c 
c  seconds   reductions  redundant   irredundant
c          MB    restarts       trail      variables
c           level   conflicts       glue        remaining
c 
c 2 14.88 708 41 5 285 5000 3582 34% 22 96289 3718 70%
c p 15.62 708 41 5 285 5000 8089 34% 22 96289 3603 68%
c d 15.73 708 41 5 285 5000 7870 34% 22 81407 3600 68%
c d 15.76 708 41 5 285 5000 7870 34% 22 81405 3599 68%
c # 16.09 708 36 5 288 6008 8565 34% 20 81405 3599 68%
c - 16.39 708 36 6 337 6304 2363 34% 21 81405 3599 68%
c } 16.56 708 34 6 352 7006 2735 34% 20 81405 3599 68%
c [ 16.56 708 25 6 352 7006 2735 79% 21 81405 3599 68%
c - 16.83 708 29 7 353 8404 2523 61% 24 81405 3599 68%
c I 17.17 708 33 7 354 10009 3628 53% 28 81405 3599 68%
c - 17.43 708 35 8 355 10806 3087 50% 29 81405 3599 68%
c - 18.07 708 35 9 357 13509 3357 45% 29 81405 3599 68%
c 2 18.45 708 35 9 357 15000 5928 43% 29 81395 3599 68%
c p 18.68 708 35 9 357 15000 10208 43% 29 81395 3599 68%
c ] 18.71 708 35 9 357 15007 10214 43% 29 81395 3599 68%
c { 18.71 708 34 9 357 15007 10214 34% 20 81395 3599 68%
c B 18.72 708 34 9 357 15010 10217 34% 20 81395 3599 68%
c s 19.09 708 33 9 432 15765 10323 34% 20 79436 3599 68%
c v 19.47 708 33 9 432 15765 10323 34% 20 79400 3599 68%
c t 19.49 708 33 9 432 15765 10303 34% 20 79353 3599 68%
c 
c  seconds   reductions   redundant   irredundant
c          MB    restarts        trail      variables
c           level    conflicts       glue       remaining
c 
c e 19.64 709 33 9 432 15765 5381 34% 20 74005 699 13%
c s 19.72 709 33 9 432 15765 5381 34% 20 73466 699 13%
c - 20.03 709 32 10 433 16509 3737 69% 19 73466 699 13%
c - 20.41 709 26 11 471 19810 3608 70% 17 73466 699 13%
c W 20.61 709 25 11 501 21011 4312 70% 17 73466 699 13%
c - 21.60 709 28 12 876 23415 4603 69% 19 73466 699 13%
c - 22.17 709 25 13 918 27315 4719 69% 18 73466 699 13%
c F 22.26 709 25 13 918 28013 5080 69% 18 73466 699 13%
c 2 23.05 709 25 13 1120 30000 7101 69% 18 73465 699 13%
c p 23.46 709 25 13 1120 30000 9008 69% 18 73465 693 13%
c d 23.52 709 25 13 1120 30000 8877 69% 18 73295 692 13%
c d 23.55 709 25 13 1120 30000 8869 69% 18 73290 691 13%
c } 23.72 709 25 13 1124 31007 9579 69% 18 73290 691 13%
c [ 23.72 709 35 13 1124 31007 9579 232% 29 73290 691 13%
c - 23.85 709 34 14 1124 31515 5765 224% 28 73290 691 13%
c - 24.48 709 30 15 1127 36016 6379 175% 25 73290 691 13%
c B 24.49 709 30 15 1127 36017 6380 175% 25 73290 691 13%
c - 25.09 709 30 16 1130 40816 6720 148% 25 73290 691 13%
c s 25.42 709 30 16 1131 42628 8154 141% 25 72530 691 13%
c v 25.81 709 30 16 1131 42628 8154 141% 25 72504 691 13%
c 
c  seconds   reductions     redundant    irredundant
c          MB     restarts         trail       variables
c           level      conflicts        glue       remaining
c 
c t 25.83 709 30 16 1131 42628 8140 141% 25 72501 691 13%
c e 25.96 709 30 16 1131 42628 8118 141% 25 72456 671 13%
c s 26.07 709 30 16 1131 42628 8118 141% 25 72014 671 13%
c W 26.80 709 29 16 1131 45018 9864 133% 25 72014 671 13%
c - 27.00 709 29 17 1131 45916 6963 130% 25 72014 671 13%
c p 27.86 709 28 17 1132 50001 12293 120% 24 72014 671 13%
c - 28.17 709 28 18 1132 51317 7392 118% 24 72014 671 13%
c O 28.88 709 27 18 1133 55020 9723 111% 23 72014 671 13%
c - 29.10 709 26 19 1135 57019 7047 108% 22 72014 671 13%
c ] 29.46 709 26 19 1137 60067 8714 104% 22 72014 671 13%
c 1 29.46 709 26 19 1137 60067 8714 104% 22 72014 671 13%
c 
c --- [ writing output ] -----------------------------------------------------
c 
c writing simplified CNF to DIMACS file 'simp/12.cubes1399.adj.simp1'
c * 29.46 709 26 19 1137 60067 8714 104% 22 72014 671 13%
c opening file to write 'simp/12.cubes1399.adj.simp1'
c writing 'p cnf 5320 72014' header
c closing file 'simp/12.cubes1399.adj.simp1'
c after writing 22415733 bytes 21.4 MB
c wrote 72014 clauses in 0.16 seconds process time
c 
c --- [ writing extension ] --------------------------------------------------
c 
c writing extension stack to 'simp/12.cubes1399.adj.ext1'
c opening file to write 'simp/12.cubes1399.adj.ext1'
c closing file 'simp/12.cubes1399.adj.ext1'
c after writing 165411 bytes 0.2 MB
c wrote 7602 witnesses in 0.00 seconds process time
c 
c --- [ result ] -------------------------------------------------------------
c 
s SATISFIABLE
c 
c --- [ run-time profiling ] -------------------------------------------------
c 
c process time taken by individual solving procedures
c (percentage relative to process time for solving)
c 
c        17.15   82.59% search
c         9.45   45.52% unstable
c         8.70   41.89% parse
c         6.89   33.19% stable
c         3.62   17.41% simplify
c         1.49    7.16% probe
c         0.78    3.78% vivify
c         0.56    2.68% elim
c         0.55    2.64% lucky
c         0.35    1.69% subsume
c         0.26    1.23% walk
c         0.05    0.24% ternary
c   =================================
c        20.77   70.09% solve
c 
c last line shows process time for solving
c (percentage relative to total process time)
c 
c --- [ statistics ] ---------------------------------------------------------
c 
c chronological:              9866        16.42 %  of conflicts
c conflicts:                 60067      2892.67    per second
c decisions:                119949      5776.43    per second
c eliminated:                 2920        54.89 %  of all variables
c fixed:                      1715        32.24 %  of all variables
c learned:                   58812        97.91 %  per conflict
c learned_lits:            8806668       100.00 %  learned literals
c minimized:                     0         0.00 %  learned literals
c shrunken:                4878730        55.40 %  learned literals
c minishrunken:             806017         9.15 %  learned literals
c propagations:            5743397         0.28 M  per second
c reduced:                   31322        52.15 %  per conflict
c rephased:                     10      6006.70    interval
c restarts:                   1137        52.83    interval
c stabilizing:                   3        65.03 %  of conflicts
c substituted:                  14         0.26 %  of all variables
c subsumed:                  22775         1.12 %  of all clauses
c strengthened:               9070         0.44 %  of all clauses
c ternary:                    3938         0.51 %  of resolved
c vivified:                    103         0.01 %  of all clauses
c walked:                        2     30033.50    interval
c weakened:                   5887         2.89    average size
c 
c seconds are measured in process time for solving
c 
c --- [ resources ] ----------------------------------------------------------
c 
c total process time since initialization:        29.63    seconds
c total real time since initialization:           29.65    seconds
c maximum resident set size of process:          740.65    MB
c 
c --- [ shutting down ] ------------------------------------------------------
c 
c exit 10
WARNING! DIMACS header mismatch: wrong number of variables.
============================[ Problem Statistics ]=============================
|                                                                             |
|  Number of variables:          2726                                         |
|  Number of clauses:           72016                                         |
|  Parse time:                   0.29 s                                       |
|  Simplification time:          0.01 s                                       |
|                                                                             |
============================[ Search Statistics ]====================================================
| Conflicts |          ORIGINAL         |          LEARNT          | Num Sols |      SUBGRAPHS      |
|           |    Vars  Clauses Literals |    Limit  Clauses Lit/Cl |          | Canonical Noncanon. |
=====================================================================================================
|       108 |    2629    72024  4996005 |     2000      108     89 |        0 |        23         8 |
|       299 |    2629    72065  4996821 |     2000      299     67 |        0 |        29        49 |
|       524 |    2629    72065  4996821 |     2000      524     79 |        0 |        33        49 |
|       870 |    2629    72074  4996987 |     2000      870     74 |        0 |        58        58 |
|      1402 |    2629    72100  4997440 |     2000     1402     74 |        0 |        75        84 |
|      2161 |    2629    72100  4997440 |     3599     1160     51 |        0 |        79        84 |
|      3348 |    2629    72148  4998370 |     3599     2347     59 |        0 |       104       132 |
|      5093 |    2629    72185  4999202 |     5000     2293     55 |        0 |       118       169 |
|      8041 |    2629    72571  5004244 |     6302     2743     40 |        0 |       216       555 |
|     12154 |    2629    72840  5008018 |     7553     3707     39 |        0 |       308       824 |
|     18160 |    2629    73080  5011762 |     8778     5938     50 |        0 |       377      1064 |
|     27043 |    2629    73314  5014880 |    11197     5440     40 |        0 |       480      1298 |
|     40269 |    2629    73566  5017900 |    13601     6870     40 |        0 |       563      1550 |
|     60066 |    2629    73902  5023519 |    16008    12474     54 |        0 |       780      1886 |
|     90959 |    2629    75603  5047698 |    19618    17577     58 |        0 |      1218      3587 |
|    136335 |    2629    77190  5074420 |    24407    20142     50 |        0 |      1872      5174 |
|    204701 |    2629    79872  5114445 |    30415    21516     45 |        0 |      2395      7856 |
|    304205 |    2629    80850  5129642 |    37619    20824     37 |        0 |      2933      8834 |
|    455966 |    2624    78984  5098037 |    43097    25463     59 |        0 |      4185     12806 |
|    685545 |    2586    86772  5185595 |    56793    29338     36 |        0 |      6755     20702 |
|   1028038 |    2524    66518  4225972 |    68435    60471     49 |        0 |     10120     30670 |
=====================================================================================================
Number of solutions   : 0
Canonical subgraphs   : 10582          (61 /sec)
          order  3    : 1              (166667 /sec)
          order  4    : 1              (500000 /sec)
          order  5    : 1              (200000 /sec)
          order  6    : 1              (52632 /sec)
          order  7    : 2              (10152 /sec)
          order  8    : 4              (2074 /sec)
          order  9    : 9              (433 /sec)
          order 10    : 38             (130 /sec)
          order 11    : 157            (41 /sec)
          order 12    : 876            (44 /sec)
          order 13    : 4128           (69 /sec)
          order 14    : 5307           (61 /sec)
          order 15    : 55             (43 /sec)
          order 16    : 2              (41 /sec)
          order 17    : 0              (-nan /sec)
          order 18    : 0              (-nan /sec)
          order 19    : 0              (-nan /sec)
          order 20    : 0              (-nan /sec)
          order 21    : 0              (-nan /sec)
Noncanonical subgraphs: 32465          (1868 /sec)
          order  3    : 0              (-nan /sec)
          order  4    : 0              (-nan /sec)
          order  5    : 0              (-nan /sec)
          order  6    : 0              (-nan /sec)
          order  7    : 0              (-nan /sec)
          order  8    : 0              (-nan /sec)
          order  9    : 0              (-nan /sec)
          order 10    : 0              (-nan /sec)
          order 11    : 0              (-nan /sec)
          order 12    : 0              (-nan /sec)
          order 13    : 21598          (2423 /sec)
          order 14    : 8996           (3056 /sec)
          order 15    : 1862           (338 /sec)
          order 16    : 9              (396 /sec)
          order 17    : 0              (-nan /sec)
          order 18    : 0              (-nan /sec)
          order 19    : 0              (-nan /sec)
          order 20    : 0              (-nan /sec)
Canonicity checking   : 172.411 s
Noncanonicity checking: 17.3812 s
Total canonicity time : 189.792 s
database reductions   : 56
restarts              : 2047
conflicts             : 1068694        (2987 /sec)
decisions             : 1352806        (0.00 % random) (3781 /sec)
propagations          : 43779706       (122361 /sec)
conflict literals     : 82657673       (52.60 % deleted)
actual reward         : 0.287531
Memory used           : 147.00 MB
CPU time              : 357.791 s

UNSATISFIABLE
